1 1 722178
1 2 732194
1 3 733473
1 4 725147
1 5 719431
2 1 492747
2 2 494203
2 3 495089
2 4 492107
2 5 489625
3 1 2688951.0 *
3 2 2697803.8 *
3 3 2679038.0 *
3 4 2692662.0 *
3 5 2646182
4 1 541803
4 2 539178
4 3 544684
4 4 541849
4 5 537782
5 1 2775499
5 2 2781496
5 3 2767634
5 4 2777307
5 5 2735567
